Route #1: 128 118 54 12 89 45 90 18 133 28 83 56 91 85 120 97 19 7 32 16 36
Route #2: 65 61 64 44 74 11 100 81 47 96 62 104 132 23 21 33 125 123 137 55 139 95 57 73
Route #3: 126 13 127 84 68
Route #4: 25 35 142 82 14 37 122 77 22 119 80 39 29 42 131 69 140 141 15 27 106 24 99 71 130
Route #5: 109 9 50 49 51 88 52 20 66 101 46 67 58 135 59 40 70 124 115
Route #6: 117 108 92 134 38 103 10 113 63 112 26 75 94 3 76 129 105 138 34 121 30 87 48 4
Route #7: 136 116 93 5 107 1 111 72 60 79 98 31 6 102 53 110 114 43 8 86 41 2 17 78
Cost 15700
